c Generated with `cnfgen`
c (C) 2012-2018 Massimo Lauria <lauria.massimo@gmail.com>
c https://massimolauria.net/cnfgen
c
c COMMAND LINE: cnfgen tseitin --gnd 90 5 --charge randomodd
c
p cnf 225 1440
1 2 3 4 5 0
1 2 3 -4 -5 0
1 2 -3 4 -5 0
1 2 -3 -4 5 0
1 -2 3 4 -5 0
1 -2 3 -4 5 0
1 -2 -3 4 5 0
1 -2 -3 -4 -5 0
-1 2 3 4 -5 0
-1 2 3 -4 5 0
-1 2 -3 4 5 0
-1 2 -3 -4 -5 0
-1 -2 3 4 5 0
-1 -2 3 -4 -5 0
-1 -2 -3 4 -5 0
-1 -2 -3 -4 5 0
6 7 8 9 10 0
6 7 8 -9 -10 0
6 7 -8 9 -10 0
6 7 -8 -9 10 0
6 -7 8 9 -10 0
6 -7 8 -9 10 0
6 -7 -8 9 10 0
6 -7 -8 -9 -10 0
-6 7 8 9 -10 0
-6 7 8 -9 10 0
-6 7 -8 9 10 0
-6 7 -8 -9 -10 0
-6 -7 8 9 10 0
-6 -7 8 -9 -10 0
-6 -7 -8 9 -10 0
-6 -7 -8 -9 10 0
11 12 13 14 15 0
11 12 13 -14 -15 0
11 12 -13 14 -15 0
11 12 -13 -14 15 0
11 -12 13 14 -15 0
11 -12 13 -14 15 0
11 -12 -13 14 15 0
11 -12 -13 -14 -15 0
-11 12 13 14 -15 0
-11 12 13 -14 15 0
-11 12 -13 14 15 0
-11 12 -13 -14 -15 0
-11 -12 13 14 15 0
-11 -12 13 -14 -15 0
-11 -12 -13 14 -15 0
-11 -12 -13 -14 15 0
16 17 18 19 -20 0
16 17 18 -19 20 0
16 17 -18 19 20 0
16 17 -18 -19 -20 0
16 -17 18 19 20 0
16 -17 18 -19 -20 0
16 -17 -18 19 -20 0
16 -17 -18 -19 20 0
-16 17 18 19 20 0
-16 17 18 -19 -20 0
-16 17 -18 19 -20 0
-16 17 -18 -19 20 0
-16 -17 18 19 -20 0
-16 -17 18 -19 20 0
-16 -17 -18 19 20 0
-16 -17 -18 -19 -20 0
21 22 23 24 25 0
21 22 23 -24 -25 0
21 22 -23 24 -25 0
21 22 -23 -24 25 0
21 -22 23 24 -25 0
21 -22 23 -24 25 0
21 -22 -23 24 25 0
21 -22 -23 -24 -25 0
-21 22 23 24 -25 0
-21 22 23 -24 25 0
-21 22 -23 24 25 0
-21 22 -23 -24 -25 0
-21 -22 23 24 25 0
-21 -22 23 -24 -25 0
-21 -22 -23 24 -25 0
-21 -22 -23 -24 25 0
26 27 28 29 30 0
26 27 28 -29 -30 0
26 27 -28 29 -30 0
26 27 -28 -29 30 0
26 -27 28 29 -30 0
26 -27 28 -29 30 0
26 -27 -28 29 30 0
26 -27 -28 -29 -30 0
-26 27 28 29 -30 0
-26 27 28 -29 30 0
-26 27 -28 29 30 0
-26 27 -28 -29 -30 0
-26 -27 28 29 30 0
-26 -27 28 -29 -30 0
-26 -27 -28 29 -30 0
-26 -27 -28 -29 30 0
31 32 33 34 -35 0
31 32 33 -34 35 0
31 32 -33 34 35 0
31 32 -33 -34 -35 0
31 -32 33 34 35 0
31 -32 33 -34 -35 0
31 -32 -33 34 -35 0
31 -32 -33 -34 35 0
-31 32 33 34 35 0
-31 32 33 -34 -35 0
-31 32 -33 34 -35 0
-31 32 -33 -34 35 0
-31 -32 33 34 -35 0
-31 -32 33 -34 35 0
-31 -32 -33 34 35 0
-31 -32 -33 -34 -35 0
6 36 37 38 39 0
6 36 37 -38 -39 0
6 36 -37 38 -39 0
6 36 -37 -38 39 0
6 -36 37 38 -39 0
6 -36 37 -38 39 0
6 -36 -37 38 39 0
6 -36 -37 -38 -39 0
-6 36 37 38 -39 0
-6 36 37 -38 39 0
-6 36 -37 38 39 0
-6 36 -37 -38 -39 0
-6 -36 37 38 39 0
-6 -36 37 -38 -39 0
-6 -36 -37 38 -39 0
-6 -36 -37 -38 39 0
40 41 42 43 -44 0
40 41 42 -43 44 0
40 41 -42 43 44 0
40 41 -42 -43 -44 0
40 -41 42 43 44 0
40 -41 42 -43 -44 0
40 -41 -42 43 -44 0
40 -41 -42 -43 44 0
-40 41 42 43 44 0
-40 41 42 -43 -44 0
-40 41 -42 43 -44 0
-40 41 -42 -43 44 0
-40 -41 42 43 -44 0
-40 -41 42 -43 44 0
-40 -41 -42 43 44 0
-40 -41 -42 -43 -44 0
45 46 47 48 -49 0
45 46 47 -48 49 0
45 46 -47 48 49 0
45 46 -47 -48 -49 0
45 -46 47 48 49 0
45 -46 47 -48 -49 0
45 -46 -47 48 -49 0
45 -46 -47 -48 49 0
-45 46 47 48 49 0
-45 46 47 -48 -49 0
-45 46 -47 48 -49 0
-45 46 -47 -48 49 0
-45 -46 47 48 -49 0
-45 -46 47 -48 49 0
-45 -46 -47 48 49 0
-45 -46 -47 -48 -49 0
50 51 52 53 -54 0
50 51 52 -53 54 0
50 51 -52 53 54 0
50 51 -52 -53 -54 0
50 -51 52 53 54 0
50 -51 52 -53 -54 0
50 -51 -52 53 -54 0
50 -51 -52 -53 54 0
-50 51 52 53 54 0
-50 51 52 -53 -54 0
-50 51 -52 53 -54 0
-50 51 -52 -53 54 0
-50 -51 52 53 -54 0
-50 -51 52 -53 54 0
-50 -51 -52 53 54 0
-50 -51 -52 -53 -54 0
36 55 56 57 -58 0
36 55 56 -57 58 0
36 55 -56 57 58 0
36 55 -56 -57 -58 0
36 -55 56 57 58 0
36 -55 56 -57 -58 0
36 -55 -56 57 -58 0
36 -55 -56 -57 58 0
-36 55 56 57 58 0
-36 55 56 -57 -58 0
-36 55 -56 57 -58 0
-36 55 -56 -57 58 0
-36 -55 56 57 -58 0
-36 -55 56 -57 58 0
-36 -55 -56 57 58 0
-36 -55 -56 -57 -58 0
59 60 61 62 -63 0
59 60 61 -62 63 0
59 60 -61 62 63 0
59 60 -61 -62 -63 0
59 -60 61 62 63 0
59 -60 61 -62 -63 0
59 -60 -61 62 -63 0
59 -60 -61 -62 63 0
-59 60 61 62 63 0
-59 60 61 -62 -63 0
-59 60 -61 62 -63 0
-59 60 -61 -62 63 0
-59 -60 61 62 -63 0
-59 -60 61 -62 63 0
-59 -60 -61 62 63 0
-59 -60 -61 -62 -63 0
26 64 65 66 -67 0
26 64 65 -66 67 0
26 64 -65 66 67 0
26 64 -65 -66 -67 0
26 -64 65 66 67 0
26 -64 65 -66 -67 0
26 -64 -65 66 -67 0
26 -64 -65 -66 67 0
-26 64 65 66 67 0
-26 64 65 -66 -67 0
-26 64 -65 66 -67 0
-26 64 -65 -66 67 0
-26 -64 65 66 -67 0
-26 -64 65 -66 67 0
-26 -64 -65 66 67 0
-26 -64 -65 -66 -67 0
68 69 70 71 72 0
68 69 70 -71 -72 0
68 69 -70 71 -72 0
68 69 -70 -71 72 0
68 -69 70 71 -72 0
68 -69 70 -71 72 0
68 -69 -70 71 72 0
68 -69 -70 -71 -72 0
-68 69 70 71 -72 0
-68 69 70 -71 72 0
-68 69 -70 71 72 0
-68 69 -70 -71 -72 0
-68 -69 70 71 72 0
-68 -69 70 -71 -72 0
-68 -69 -70 71 -72 0
-68 -69 -70 -71 72 0
73 74 75 76 -77 0
73 74 75 -76 77 0
73 74 -75 76 77 0
73 74 -75 -76 -77 0
73 -74 75 76 77 0
73 -74 75 -76 -77 0
73 -74 -75 76 -77 0
73 -74 -75 -76 77 0
-73 74 75 76 77 0
-73 74 75 -76 -77 0
-73 74 -75 76 -77 0
-73 74 -75 -76 77 0
-73 -74 75 76 -77 0
-73 -74 75 -76 77 0
-73 -74 -75 76 77 0
-73 -74 -75 -76 -77 0
50 78 79 80 -81 0
50 78 79 -80 81 0
50 78 -79 80 81 0
50 78 -79 -80 -81 0
50 -78 79 80 81 0
50 -78 79 -80 -81 0
50 -78 -79 80 -81 0
50 -78 -79 -80 81 0
-50 78 79 80 81 0
-50 78 79 -80 -81 0
-50 78 -79 80 -81 0
-50 78 -79 -80 81 0
-50 -78 79 80 -81 0
-50 -78 79 -80 81 0
-50 -78 -79 80 81 0
-50 -78 -79 -80 -81 0
78 82 83 84 85 0
78 82 83 -84 -85 0
78 82 -83 84 -85 0
78 82 -83 -84 85 0
78 -82 83 84 -85 0
78 -82 83 -84 85 0
78 -82 -83 84 85 0
78 -82 -83 -84 -85 0
-78 82 83 84 -85 0
-78 82 83 -84 85 0
-78 82 -83 84 85 0
-78 82 -83 -84 -85 0
-78 -82 83 84 85 0
-78 -82 83 -84 -85 0
-78 -82 -83 84 -85 0
-78 -82 -83 -84 85 0
11 86 87 88 89 0
11 86 87 -88 -89 0
11 86 -87 88 -89 0
11 86 -87 -88 89 0
11 -86 87 88 -89 0
11 -86 87 -88 89 0
11 -86 -87 88 89 0
11 -86 -87 -88 -89 0
-11 86 87 88 -89 0
-11 86 87 -88 89 0
-11 86 -87 88 89 0
-11 86 -87 -88 -89 0
-11 -86 87 88 89 0
-11 -86 87 -88 -89 0
-11 -86 -87 88 -89 0
-11 -86 -87 -88 89 0
1 55 90 91 -92 0
1 55 90 -91 92 0
1 55 -90 91 92 0
1 55 -90 -91 -92 0
1 -55 90 91 92 0
1 -55 90 -91 -92 0
1 -55 -90 91 -92 0
1 -55 -90 -91 92 0
-1 55 90 91 92 0
-1 55 90 -91 -92 0
-1 55 -90 91 -92 0
-1 55 -90 -91 92 0
-1 -55 90 91 -92 0
-1 -55 90 -91 92 0
-1 -55 -90 91 92 0
-1 -55 -90 -91 -92 0
93 94 95 96 -97 0
93 94 95 -96 97 0
93 94 -95 96 97 0
93 94 -95 -96 -97 0
93 -94 95 96 97 0
93 -94 95 -96 -97 0
93 -94 -95 96 -97 0
93 -94 -95 -96 97 0
-93 94 95 96 97 0
-93 94 95 -96 -97 0
-93 94 -95 96 -97 0
-93 94 -95 -96 97 0
-93 -94 95 96 -97 0
-93 -94 95 -96 97 0
-93 -94 -95 96 97 0
-93 -94 -95 -96 -97 0
73 98 99 100 101 0
73 98 99 -100 -101 0
73 98 -99 100 -101 0
73 98 -99 -100 101 0
73 -98 99 100 -101 0
73 -98 99 -100 101 0
73 -98 -99 100 101 0
73 -98 -99 -100 -101 0
-73 98 99 100 -101 0
-73 98 99 -100 101 0
-73 98 -99 100 101 0
-73 98 -99 -100 -101 0
-73 -98 99 100 101 0
-73 -98 99 -100 -101 0
-73 -98 -99 100 -101 0
-73 -98 -99 -100 101 0
102 103 104 105 106 0
102 103 104 -105 -106 0
102 103 -104 105 -106 0
102 103 -104 -105 106 0
102 -103 104 105 -106 0
102 -103 104 -105 106 0
102 -103 -104 105 106 0
102 -103 -104 -105 -106 0
-102 103 104 105 -106 0
-102 103 104 -105 106 0
-102 103 -104 105 106 0
-102 103 -104 -105 -106 0
-102 -103 104 105 106 0
-102 -103 104 -105 -106 0
-102 -103 -104 105 -106 0
-102 -103 -104 -105 106 0
107 108 109 110 111 0
107 108 109 -110 -111 0
107 108 -109 110 -111 0
107 108 -109 -110 111 0
107 -108 109 110 -111 0
107 -108 109 -110 111 0
107 -108 -109 110 111 0
107 -108 -109 -110 -111 0
-107 108 109 110 -111 0
-107 108 109 -110 111 0
-107 108 -109 110 111 0
-107 108 -109 -110 -111 0
-107 -108 109 110 111 0
-107 -108 109 -110 -111 0
-107 -108 -109 110 -111 0
-107 -108 -109 -110 111 0
112 113 114 115 -116 0
112 113 114 -115 116 0
112 113 -114 115 116 0
112 113 -114 -115 -116 0
112 -113 114 115 116 0
112 -113 114 -115 -116 0
112 -113 -114 115 -116 0
112 -113 -114 -115 116 0
-112 113 114 115 116 0
-112 113 114 -115 -116 0
-112 113 -114 115 -116 0
-112 113 -114 -115 116 0
-112 -113 114 115 -116 0
-112 -113 114 -115 116 0
-112 -113 -114 115 116 0
-112 -113 -114 -115 -116 0
40 68 117 118 119 0
40 68 117 -118 -119 0
40 68 -117 118 -119 0
40 68 -117 -118 119 0
40 -68 117 118 -119 0
40 -68 117 -118 119 0
40 -68 -117 118 119 0
40 -68 -117 -118 -119 0
-40 68 117 118 -119 0
-40 68 117 -118 119 0
-40 68 -117 118 119 0
-40 68 -117 -118 -119 0
-40 -68 117 118 119 0
-40 -68 117 -118 -119 0
-40 -68 -117 118 -119 0
-40 -68 -117 -118 119 0
2 21 120 121 -122 0
2 21 120 -121 122 0
2 21 -120 121 122 0
2 21 -120 -121 -122 0
2 -21 120 121 122 0
2 -21 120 -121 -122 0
2 -21 -120 121 -122 0
2 -21 -120 -121 122 0
-2 21 120 121 122 0
-2 21 120 -121 -122 0
-2 21 -120 121 -122 0
-2 21 -120 -121 122 0
-2 -21 120 121 -122 0
-2 -21 120 -121 122 0
-2 -21 -120 121 122 0
-2 -21 -120 -121 -122 0
37 123 124 125 -126 0
37 123 124 -125 126 0
37 123 -124 125 126 0
37 123 -124 -125 -126 0
37 -123 124 125 126 0
37 -123 124 -125 -126 0
37 -123 -124 125 -126 0
37 -123 -124 -125 126 0
-37 123 124 125 126 0
-37 123 124 -125 -126 0
-37 123 -124 125 -126 0
-37 123 -124 -125 126 0
-37 -123 124 125 -126 0
-37 -123 124 -125 126 0
-37 -123 -124 125 126 0
-37 -123 -124 -125 -126 0
27 31 45 127 128 0
27 31 45 -127 -128 0
27 31 -45 127 -128 0
27 31 -45 -127 128 0
27 -31 45 127 -128 0
27 -31 45 -127 128 0
27 -31 -45 127 128 0
27 -31 -45 -127 -128 0
-27 31 45 127 -128 0
-27 31 45 -127 128 0
-27 31 -45 127 128 0
-27 31 -45 -127 -128 0
-27 -31 45 127 128 0
-27 -31 45 -127 -128 0
-27 -31 -45 127 -128 0
-27 -31 -45 -127 128 0
22 82 129 130 131 0
22 82 129 -130 -131 0
22 82 -129 130 -131 0
22 82 -129 -130 131 0
22 -82 129 130 -131 0
22 -82 129 -130 131 0
22 -82 -129 130 131 0
22 -82 -129 -130 -131 0
-22 82 129 130 -131 0
-22 82 129 -130 131 0
-22 82 -129 130 131 0
-22 82 -129 -130 -131 0
-22 -82 129 130 131 0
-22 -82 129 -130 -131 0
-22 -82 -129 130 -131 0
-22 -82 -129 -130 131 0
7 12 64 112 -132 0
7 12 64 -112 132 0
7 12 -64 112 132 0
7 12 -64 -112 -132 0
7 -12 64 112 132 0
7 -12 64 -112 -132 0
7 -12 -64 112 -132 0
7 -12 -64 -112 132 0
-7 12 64 112 132 0
-7 12 64 -112 -132 0
-7 12 -64 112 -132 0
-7 12 -64 -112 132 0
-7 -12 64 112 -132 0
-7 -12 64 -112 132 0
-7 -12 -64 112 132 0
-7 -12 -64 -112 -132 0
28 32 133 134 135 0
28 32 133 -134 -135 0
28 32 -133 134 -135 0
28 32 -133 -134 135 0
28 -32 133 134 -135 0
28 -32 133 -134 135 0
28 -32 -133 134 135 0
28 -32 -133 -134 -135 0
-28 32 133 134 -135 0
-28 32 133 -134 135 0
-28 32 -133 134 135 0
-28 32 -133 -134 -135 0
-28 -32 133 134 135 0
-28 -32 133 -134 -135 0
-28 -32 -133 134 -135 0
-28 -32 -133 -134 135 0
3 56 59 113 -136 0
3 56 59 -113 136 0
3 56 -59 113 136 0
3 56 -59 -113 -136 0
3 -56 59 113 136 0
3 -56 59 -113 -136 0
3 -56 -59 113 -136 0
3 -56 -59 -113 136 0
-3 56 59 113 136 0
-3 56 59 -113 -136 0
-3 56 -59 113 -136 0
-3 56 -59 -113 136 0
-3 -56 59 113 -136 0
-3 -56 59 -113 136 0
-3 -56 -59 113 136 0
-3 -56 -59 -113 -136 0
60 137 138 139 140 0
60 137 138 -139 -140 0
60 137 -138 139 -140 0
60 137 -138 -139 140 0
60 -137 138 139 -140 0
60 -137 138 -139 140 0
60 -137 -138 139 140 0
60 -137 -138 -139 -140 0
-60 137 138 139 -140 0
-60 137 138 -139 140 0
-60 137 -138 139 140 0
-60 137 -138 -139 -140 0
-60 -137 138 139 140 0
-60 -137 138 -139 -140 0
-60 -137 -138 139 -140 0
-60 -137 -138 -139 140 0
33 46 61 141 142 0
33 46 61 -141 -142 0
33 46 -61 141 -142 0
33 46 -61 -141 142 0
33 -46 61 141 -142 0
33 -46 61 -141 142 0
33 -46 -61 141 142 0
33 -46 -61 -141 -142 0
-33 46 61 141 -142 0
-33 46 61 -141 142 0
-33 46 -61 141 142 0
-33 46 -61 -141 -142 0
-33 -46 61 141 142 0
-33 -46 61 -141 -142 0
-33 -46 -61 141 -142 0
-33 -46 -61 -141 142 0
34 51 98 143 -144 0
34 51 98 -143 144 0
34 51 -98 143 144 0
34 51 -98 -143 -144 0
34 -51 98 143 144 0
34 -51 98 -143 -144 0
34 -51 -98 143 -144 0
34 -51 -98 -143 144 0
-34 51 98 143 144 0
-34 51 98 -143 -144 0
-34 51 -98 143 -144 0
-34 51 -98 -143 144 0
-34 -51 98 143 -144 0
-34 -51 98 -143 144 0
-34 -51 -98 143 144 0
-34 -51 -98 -143 -144 0
35 52 102 145 146 0
35 52 102 -145 -146 0
35 52 -102 145 -146 0
35 52 -102 -145 146 0
35 -52 102 145 -146 0
35 -52 102 -145 146 0
35 -52 -102 145 146 0
35 -52 -102 -145 -146 0
-35 52 102 145 -146 0
-35 52 102 -145 146 0
-35 52 -102 145 146 0
-35 52 -102 -145 -146 0
-35 -52 102 145 146 0
-35 -52 102 -145 -146 0
-35 -52 -102 145 -146 0
-35 -52 -102 -145 146 0
16 53 120 147 148 0
16 53 120 -147 -148 0
16 53 -120 147 -148 0
16 53 -120 -147 148 0
16 -53 120 147 -148 0
16 -53 120 -147 148 0
16 -53 -120 147 148 0
16 -53 -120 -147 -148 0
-16 53 120 147 -148 0
-16 53 120 -147 148 0
-16 53 -120 147 148 0
-16 53 -120 -147 -148 0
-16 -53 120 147 148 0
-16 -53 120 -147 -148 0
-16 -53 -120 147 -148 0
-16 -53 -120 -147 148 0
23 117 137 149 -150 0
23 117 137 -149 150 0
23 117 -137 149 150 0
23 117 -137 -149 -150 0
23 -117 137 149 150 0
23 -117 137 -149 -150 0
23 -117 -137 149 -150 0
23 -117 -137 -149 150 0
-23 117 137 149 150 0
-23 117 137 -149 -150 0
-23 117 -137 149 -150 0
-23 117 -137 -149 150 0
-23 -117 137 149 -150 0
-23 -117 137 -149 150 0
-23 -117 -137 149 150 0
-23 -117 -137 -149 -150 0
13 83 151 152 153 0
13 83 151 -152 -153 0
13 83 -151 152 -153 0
13 83 -151 -152 153 0
13 -83 151 152 -153 0
13 -83 151 -152 153 0
13 -83 -151 152 153 0
13 -83 -151 -152 -153 0
-13 83 151 152 -153 0
-13 83 151 -152 153 0
-13 83 -151 152 153 0
-13 83 -151 -152 -153 0
-13 -83 151 152 153 0
-13 -83 151 -152 -153 0
-13 -83 -151 152 -153 0
-13 -83 -151 -152 153 0
86 118 154 155 156 0
86 118 154 -155 -156 0
86 118 -154 155 -156 0
86 118 -154 -155 156 0
86 -118 154 155 -156 0
86 -118 154 -155 156 0
86 -118 -154 155 156 0
86 -118 -154 -155 -156 0
-86 118 154 155 -156 0
-86 118 154 -155 156 0
-86 118 -154 155 156 0
-86 118 -154 -155 -156 0
-86 -118 154 155 156 0
-86 -118 154 -155 -156 0
-86 -118 -154 155 -156 0
-86 -118 -154 -155 156 0
47 90 157 158 159 0
47 90 157 -158 -159 0
47 90 -157 158 -159 0
47 90 -157 -158 159 0
47 -90 157 158 -159 0
47 -90 157 -158 159 0
47 -90 -157 158 159 0
47 -90 -157 -158 -159 0
-47 90 157 158 -159 0
-47 90 157 -158 159 0
-47 90 -157 158 159 0
-47 90 -157 -158 -159 0
-47 -90 157 158 159 0
-47 -90 157 -158 -159 0
-47 -90 -157 158 -159 0
-47 -90 -157 -158 159 0
29 160 161 162 -163 0
29 160 161 -162 163 0
29 160 -161 162 163 0
29 160 -161 -162 -163 0
29 -160 161 162 163 0
29 -160 161 -162 -163 0
29 -160 -161 162 -163 0
29 -160 -161 -162 163 0
-29 160 161 162 163 0
-29 160 161 -162 -163 0
-29 160 -161 162 -163 0
-29 160 -161 -162 163 0
-29 -160 161 162 -163 0
-29 -160 161 -162 163 0
-29 -160 -161 162 163 0
-29 -160 -161 -162 -163 0
38 99 151 164 -165 0
38 99 151 -164 165 0
38 99 -151 164 165 0
38 99 -151 -164 -165 0
38 -99 151 164 165 0
38 -99 151 -164 -165 0
38 -99 -151 164 -165 0
38 -99 -151 -164 165 0
-38 99 151 164 165 0
-38 99 151 -164 -165 0
-38 99 -151 164 -165 0
-38 99 -151 -164 165 0
-38 -99 151 164 -165 0
-38 -99 151 -164 165 0
-38 -99 -151 164 165 0
-38 -99 -151 -164 -165 0
91 145 166 167 -168 0
91 145 166 -167 168 0
91 145 -166 167 168 0
91 145 -166 -167 -168 0
91 -145 166 167 168 0
91 -145 166 -167 -168 0
91 -145 -166 167 -168 0
91 -145 -166 -167 168 0
-91 145 166 167 168 0
-91 145 166 -167 -168 0
-91 145 -166 167 -168 0
-91 145 -166 -167 168 0
-91 -145 166 167 -168 0
-91 -145 166 -167 168 0
-91 -145 -166 167 168 0
-91 -145 -166 -167 -168 0
14 74 87 123 -169 0
14 74 87 -123 169 0
14 74 -87 123 169 0
14 74 -87 -123 -169 0
14 -74 87 123 169 0
14 -74 87 -123 -169 0
14 -74 -87 123 -169 0
14 -74 -87 -123 169 0
-14 74 87 123 169 0
-14 74 87 -123 -169 0
-14 74 -87 123 -169 0
-14 74 -87 -123 169 0
-14 -74 87 123 -169 0
-14 -74 87 -123 169 0
-14 -74 -87 123 169 0
-14 -74 -87 -123 -169 0
93 107 154 160 170 0
93 107 154 -160 -170 0
93 107 -154 160 -170 0
93 107 -154 -160 170 0
93 -107 154 160 -170 0
93 -107 154 -160 170 0
93 -107 -154 160 170 0
93 -107 -154 -160 -170 0
-93 107 154 160 -170 0
-93 107 154 -160 170 0
-93 107 -154 160 170 0
-93 107 -154 -160 -170 0
-93 -107 154 160 170 0
-93 -107 154 -160 -170 0
-93 -107 -154 160 -170 0
-93 -107 -154 -160 170 0
24 39 171 172 -173 0
24 39 171 -172 173 0
24 39 -171 172 173 0
24 39 -171 -172 -173 0
24 -39 171 172 173 0
24 -39 171 -172 -173 0
24 -39 -171 172 -173 0
24 -39 -171 -172 173 0
-24 39 171 172 173 0
-24 39 171 -172 -173 0
-24 39 -171 172 -173 0
-24 39 -171 -172 173 0
-24 -39 171 172 -173 0
-24 -39 171 -172 173 0
-24 -39 -171 172 173 0
-24 -39 -171 -172 -173 0
94 171 174 175 -176 0
94 171 174 -175 176 0
94 171 -174 175 176 0
94 171 -174 -175 -176 0
94 -171 174 175 176 0
94 -171 174 -175 -176 0
94 -171 -174 175 -176 0
94 -171 -174 -175 176 0
-94 171 174 175 176 0
-94 171 174 -175 -176 0
-94 171 -174 175 -176 0
-94 171 -174 -175 176 0
-94 -171 174 175 -176 0
-94 -171 174 -175 176 0
-94 -171 -174 175 176 0
-94 -171 -174 -175 -176 0
41 57 157 177 -178 0
41 57 157 -177 178 0
41 57 -157 177 178 0
41 57 -157 -177 -178 0
41 -57 157 177 178 0
41 -57 157 -177 -178 0
41 -57 -157 177 -178 0
41 -57 -157 -177 178 0
-41 57 157 177 178 0
-41 57 157 -177 -178 0
-41 57 -157 177 -178 0
-41 57 -157 -177 178 0
-41 -57 157 177 -178 0
-41 -57 157 -177 178 0
-41 -57 -157 177 178 0
-41 -57 -157 -177 -178 0
69 84 179 180 -181 0
69 84 179 -180 181 0
69 84 -179 180 181 0
69 84 -179 -180 -181 0
69 -84 179 180 181 0
69 -84 179 -180 -181 0
69 -84 -179 180 -181 0
69 -84 -179 -180 181 0
-69 84 179 180 181 0
-69 84 179 -180 -181 0
-69 84 -179 180 -181 0
-69 84 -179 -180 181 0
-69 -84 179 180 -181 0
-69 -84 179 -180 181 0
-69 -84 -179 180 181 0
-69 -84 -179 -180 -181 0
127 141 146 149 -182 0
127 141 146 -149 182 0
127 141 -146 149 182 0
127 141 -146 -149 -182 0
127 -141 146 149 182 0
127 -141 146 -149 -182 0
127 -141 -146 149 -182 0
127 -141 -146 -149 182 0
-127 141 146 149 182 0
-127 141 146 -149 -182 0
-127 141 -146 149 -182 0
-127 141 -146 -149 182 0
-127 -141 146 149 -182 0
-127 -141 146 -149 182 0
-127 -141 -146 149 182 0
-127 -141 -146 -149 -182 0
17 62 103 108 -183 0
17 62 103 -108 183 0
17 62 -103 108 183 0
17 62 -103 -108 -183 0
17 -62 103 108 183 0
17 -62 103 -108 -183 0
17 -62 -103 108 -183 0
17 -62 -103 -108 183 0
-17 62 103 108 183 0
-17 62 103 -108 -183 0
-17 62 -103 108 -183 0
-17 62 -103 -108 183 0
-17 -62 103 108 -183 0
-17 -62 103 -108 183 0
-17 -62 -103 108 183 0
-17 -62 -103 -108 -183 0
121 124 132 166 184 0
121 124 132 -166 -184 0
121 124 -132 166 -184 0
121 124 -132 -166 184 0
121 -124 132 166 -184 0
121 -124 132 -166 184 0
121 -124 -132 166 184 0
121 -124 -132 -166 -184 0
-121 124 132 166 -184 0
-121 124 132 -166 184 0
-121 124 -132 166 184 0
-121 124 -132 -166 -184 0
-121 -124 132 166 184 0
-121 -124 132 -166 -184 0
-121 -124 -132 166 -184 0
-121 -124 -132 -166 184 0
63 133 185 186 -187 0
63 133 185 -186 187 0
63 133 -185 186 187 0
63 133 -185 -186 -187 0
63 -133 185 186 187 0
63 -133 185 -186 -187 0
63 -133 -185 186 -187 0
63 -133 -185 -186 187 0
-63 133 185 186 187 0
-63 133 185 -186 -187 0
-63 133 -185 186 -187 0
-63 133 -185 -186 187 0
-63 -133 185 186 -187 0
-63 -133 185 -186 187 0
-63 -133 -185 186 187 0
-63 -133 -185 -186 -187 0
48 75 138 158 -188 0
48 75 138 -158 188 0
48 75 -138 158 188 0
48 75 -138 -158 -188 0
48 -75 138 158 188 0
48 -75 138 -158 -188 0
48 -75 -138 158 -188 0
48 -75 -138 -158 188 0
-48 75 138 158 188 0
-48 75 138 -158 -188 0
-48 75 -138 158 -188 0
-48 75 -138 -158 188 0
-48 -75 138 158 -188 0
-48 -75 138 -158 188 0
-48 -75 -138 158 188 0
-48 -75 -138 -158 -188 0
15 70 104 169 189 0
15 70 104 -169 -189 0
15 70 -104 169 -189 0
15 70 -104 -169 189 0
15 -70 104 169 -189 0
15 -70 104 -169 189 0
15 -70 -104 169 189 0
15 -70 -104 -169 -189 0
-15 70 104 169 -189 0
-15 70 104 -169 189 0
-15 70 -104 169 189 0
-15 70 -104 -169 -189 0
-15 -70 104 169 189 0
-15 -70 104 -169 -189 0
-15 -70 -104 169 -189 0
-15 -70 -104 -169 189 0
18 119 190 191 192 0
18 119 190 -191 -192 0
18 119 -190 191 -192 0
18 119 -190 -191 192 0
18 -119 190 191 -192 0
18 -119 190 -191 192 0
18 -119 -190 191 192 0
18 -119 -190 -191 -192 0
-18 119 190 191 -192 0
-18 119 190 -191 192 0
-18 119 -190 191 192 0
-18 119 -190 -191 -192 0
-18 -119 190 191 192 0
-18 -119 190 -191 -192 0
-18 -119 -190 191 -192 0
-18 -119 -190 -191 192 0
152 159 161 182 193 0
152 159 161 -182 -193 0
152 159 -161 182 -193 0
152 159 -161 -182 193 0
152 -159 161 182 -193 0
152 -159 161 -182 193 0
152 -159 -161 182 193 0
152 -159 -161 -182 -193 0
-152 159 161 182 -193 0
-152 159 161 -182 193 0
-152 159 -161 182 193 0
-152 159 -161 -182 -193 0
-152 -159 161 182 193 0
-152 -159 161 -182 -193 0
-152 -159 -161 182 -193 0
-152 -159 -161 -182 193 0
95 128 129 185 194 0
95 128 129 -185 -194 0
95 128 -129 185 -194 0
95 128 -129 -185 194 0
95 -128 129 185 -194 0
95 -128 129 -185 194 0
95 -128 -129 185 194 0
95 -128 -129 -185 -194 0
-95 128 129 185 -194 0
-95 128 129 -185 194 0
-95 128 -129 185 194 0
-95 128 -129 -185 -194 0
-95 -128 129 185 194 0
-95 -128 129 -185 -194 0
-95 -128 -129 185 -194 0
-95 -128 -129 -185 194 0
8 42 114 195 196 0
8 42 114 -195 -196 0
8 42 -114 195 -196 0
8 42 -114 -195 196 0
8 -42 114 195 -196 0
8 -42 114 -195 196 0
8 -42 -114 195 196 0
8 -42 -114 -195 -196 0
-8 42 114 195 -196 0
-8 42 114 -195 196 0
-8 42 -114 195 196 0
-8 42 -114 -195 -196 0
-8 -42 114 195 196 0
-8 -42 114 -195 -196 0
-8 -42 -114 195 -196 0
-8 -42 -114 -195 196 0
65 125 197 198 199 0
65 125 197 -198 -199 0
65 125 -197 198 -199 0
65 125 -197 -198 199 0
65 -125 197 198 -199 0
65 -125 197 -198 199 0
65 -125 -197 198 199 0
65 -125 -197 -198 -199 0
-65 125 197 198 -199 0
-65 125 197 -198 199 0
-65 125 -197 198 199 0
-65 125 -197 -198 -199 0
-65 -125 197 198 199 0
-65 -125 197 -198 -199 0
-65 -125 -197 198 -199 0
-65 -125 -197 -198 199 0
76 134 155 200 -201 0
76 134 155 -200 201 0
76 134 -155 200 201 0
76 134 -155 -200 -201 0
76 -134 155 200 201 0
76 -134 155 -200 -201 0
76 -134 -155 200 -201 0
76 -134 -155 -200 201 0
-76 134 155 200 201 0
-76 134 155 -200 -201 0
-76 134 -155 200 -201 0
-76 134 -155 -200 201 0
-76 -134 155 200 -201 0
-76 -134 155 -200 201 0
-76 -134 -155 200 201 0
-76 -134 -155 -200 -201 0
43 136 170 195 202 0
43 136 170 -195 -202 0
43 136 -170 195 -202 0
43 136 -170 -195 202 0
43 -136 170 195 -202 0
43 -136 170 -195 202 0
43 -136 -170 195 202 0
43 -136 -170 -195 -202 0
-43 136 170 195 -202 0
-43 136 170 -195 202 0
-43 136 -170 195 202 0
-43 136 -170 -195 -202 0
-43 -136 170 195 202 0
-43 -136 170 -195 -202 0
-43 -136 -170 195 -202 0
-43 -136 -170 -195 202 0
25 174 186 200 -203 0
25 174 186 -200 203 0
25 174 -186 200 203 0
25 174 -186 -200 -203 0
25 -174 186 200 203 0
25 -174 186 -200 -203 0
25 -174 -186 200 -203 0
25 -174 -186 -200 203 0
-25 174 186 200 203 0
-25 174 186 -200 -203 0
-25 174 -186 200 -203 0
-25 174 -186 -200 203 0
-25 -174 186 200 -203 0
-25 -174 186 -200 203 0
-25 -174 -186 200 203 0
-25 -174 -186 -200 -203 0
9 19 30 204 -205 0
9 19 30 -204 205 0
9 19 -30 204 205 0
9 19 -30 -204 -205 0
9 -19 30 204 205 0
9 -19 30 -204 -205 0
9 -19 -30 204 -205 0
9 -19 -30 -204 205 0
-9 19 30 204 205 0
-9 19 30 -204 -205 0
-9 19 -30 204 -205 0
-9 19 -30 -204 205 0
-9 -19 30 204 -205 0
-9 -19 30 -204 205 0
-9 -19 -30 204 205 0
-9 -19 -30 -204 -205 0
10 71 96 109 -206 0
10 71 96 -109 206 0
10 71 -96 109 206 0
10 71 -96 -109 -206 0
10 -71 96 109 206 0
10 -71 96 -109 -206 0
10 -71 -96 109 -206 0
10 -71 -96 -109 206 0
-10 71 96 109 206 0
-10 71 96 -109 -206 0
-10 71 -96 109 -206 0
-10 71 -96 -109 206 0
-10 -71 96 109 -206 0
-10 -71 96 -109 206 0
-10 -71 -96 109 206 0
-10 -71 -96 -109 -206 0
164 207 208 209 210 0
164 207 208 -209 -210 0
164 207 -208 209 -210 0
164 207 -208 -209 210 0
164 -207 208 209 -210 0
164 -207 208 -209 210 0
164 -207 -208 209 210 0
164 -207 -208 -209 -210 0
-164 207 208 209 -210 0
-164 207 208 -209 210 0
-164 207 -208 209 210 0
-164 207 -208 -209 -210 0
-164 -207 208 209 210 0
-164 -207 208 -209 -210 0
-164 -207 -208 209 -210 0
-164 -207 -208 -209 210 0
54 193 204 211 -212 0
54 193 204 -211 212 0
54 193 -204 211 212 0
54 193 -204 -211 -212 0
54 -193 204 211 212 0
54 -193 204 -211 -212 0
54 -193 -204 211 -212 0
54 -193 -204 -211 212 0
-54 193 204 211 212 0
-54 193 204 -211 -212 0
-54 193 -204 211 -212 0
-54 193 -204 -211 212 0
-54 -193 204 211 -212 0
-54 -193 204 -211 212 0
-54 -193 -204 211 212 0
-54 -193 -204 -211 -212 0
162 190 196 202 203 0
162 190 196 -202 -203 0
162 190 -196 202 -203 0
162 190 -196 -202 203 0
162 -190 196 202 -203 0
162 -190 196 -202 203 0
162 -190 -196 202 203 0
162 -190 -196 -202 -203 0
-162 190 196 202 -203 0
-162 190 196 -202 203 0
-162 190 -196 202 203 0
-162 190 -196 -202 -203 0
-162 -190 196 202 203 0
-162 -190 196 -202 -203 0
-162 -190 -196 202 -203 0
-162 -190 -196 -202 203 0
115 130 156 179 188 0
115 130 156 -179 -188 0
115 130 -156 179 -188 0
115 130 -156 -179 188 0
115 -130 156 179 -188 0
115 -130 156 -179 188 0
115 -130 -156 179 188 0
115 -130 -156 -179 -188 0
-115 130 156 179 -188 0
-115 130 156 -179 188 0
-115 130 -156 179 188 0
-115 130 -156 -179 -188 0
-115 -130 156 179 188 0
-115 -130 156 -179 -188 0
-115 -130 -156 179 -188 0
-115 -130 -156 -179 188 0
110 147 167 184 213 0
110 147 167 -184 -213 0
110 147 -167 184 -213 0
110 147 -167 -184 213 0
110 -147 167 184 -213 0
110 -147 167 -184 213 0
110 -147 -167 184 213 0
110 -147 -167 -184 -213 0
-110 147 167 184 -213 0
-110 147 167 -184 213 0
-110 147 -167 184 213 0
-110 147 -167 -184 -213 0
-110 -147 167 184 213 0
-110 -147 167 -184 -213 0
-110 -147 -167 184 -213 0
-110 -147 -167 -184 213 0
72 197 214 215 216 0
72 197 214 -215 -216 0
72 197 -214 215 -216 0
72 197 -214 -215 216 0
72 -197 214 215 -216 0
72 -197 214 -215 216 0
72 -197 -214 215 216 0
72 -197 -214 -215 -216 0
-72 197 214 215 -216 0
-72 197 214 -215 216 0
-72 197 -214 215 216 0
-72 197 -214 -215 -216 0
-72 -197 214 215 216 0
-72 -197 214 -215 -216 0
-72 -197 -214 215 -216 0
-72 -197 -214 -215 216 0
4 79 143 150 191 0
4 79 143 -150 -191 0
4 79 -143 150 -191 0
4 79 -143 -150 191 0
4 -79 143 150 -191 0
4 -79 143 -150 191 0
4 -79 -143 150 191 0
4 -79 -143 -150 -191 0
-4 79 143 150 -191 0
-4 79 143 -150 191 0
-4 79 -143 150 191 0
-4 79 -143 -150 -191 0
-4 -79 143 150 191 0
-4 -79 143 -150 -191 0
-4 -79 -143 150 -191 0
-4 -79 -143 -150 191 0
44 148 180 207 -217 0
44 148 180 -207 217 0
44 148 -180 207 217 0
44 148 -180 -207 -217 0
44 -148 180 207 217 0
44 -148 180 -207 -217 0
44 -148 -180 207 -217 0
44 -148 -180 -207 217 0
-44 148 180 207 217 0
-44 148 180 -207 -217 0
-44 148 -180 207 -217 0
-44 148 -180 -207 217 0
-44 -148 180 207 -217 0
-44 -148 180 -207 217 0
-44 -148 -180 207 217 0
-44 -148 -180 -207 -217 0
105 168 214 218 219 0
105 168 214 -218 -219 0
105 168 -214 218 -219 0
105 168 -214 -218 219 0
105 -168 214 218 -219 0
105 -168 214 -218 219 0
105 -168 -214 218 219 0
105 -168 -214 -218 -219 0
-105 168 214 218 -219 0
-105 168 214 -218 219 0
-105 168 -214 218 219 0
-105 168 -214 -218 -219 0
-105 -168 214 218 219 0
-105 -168 214 -218 -219 0
-105 -168 -214 218 -219 0
-105 -168 -214 -218 219 0
20 116 139 208 -220 0
20 116 139 -208 220 0
20 116 -139 208 220 0
20 116 -139 -208 -220 0
20 -116 139 208 220 0
20 -116 139 -208 -220 0
20 -116 -139 208 -220 0
20 -116 -139 -208 220 0
-20 116 139 208 220 0
-20 116 139 -208 -220 0
-20 116 -139 208 -220 0
-20 116 -139 -208 220 0
-20 -116 139 208 -220 0
-20 -116 139 -208 220 0
-20 -116 -139 208 220 0
-20 -116 -139 -208 -220 0
49 126 153 198 213 0
49 126 153 -198 -213 0
49 126 -153 198 -213 0
49 126 -153 -198 213 0
49 -126 153 198 -213 0
49 -126 153 -198 213 0
49 -126 -153 198 213 0
49 -126 -153 -198 -213 0
-49 126 153 198 -213 0
-49 126 153 -198 213 0
-49 126 -153 198 213 0
-49 126 -153 -198 -213 0
-49 -126 153 198 213 0
-49 -126 153 -198 -213 0
-49 -126 -153 198 -213 0
-49 -126 -153 -198 213 0
88 100 163 192 -221 0
88 100 163 -192 221 0
88 100 -163 192 221 0
88 100 -163 -192 -221 0
88 -100 163 192 221 0
88 -100 163 -192 -221 0
88 -100 -163 192 -221 0
88 -100 -163 -192 221 0
-88 100 163 192 221 0
-88 100 163 -192 -221 0
-88 100 -163 192 -221 0
-88 100 -163 -192 221 0
-88 -100 163 192 -221 0
-88 -100 163 -192 221 0
-88 -100 -163 192 221 0
-88 -100 -163 -192 -221 0
144 172 205 209 -222 0
144 172 205 -209 222 0
144 172 -205 209 222 0
144 172 -205 -209 -222 0
144 -172 205 209 222 0
144 -172 205 -209 -222 0
144 -172 -205 209 -222 0
144 -172 -205 -209 222 0
-144 172 205 209 222 0
-144 172 205 -209 -222 0
-144 172 -205 209 -222 0
-144 172 -205 -209 222 0
-144 -172 205 209 -222 0
-144 -172 205 -209 222 0
-144 -172 -205 209 222 0
-144 -172 -205 -209 -222 0
66 80 194 211 223 0
66 80 194 -211 -223 0
66 80 -194 211 -223 0
66 80 -194 -211 223 0
66 -80 194 211 -223 0
66 -80 194 -211 223 0
66 -80 -194 211 223 0
66 -80 -194 -211 -223 0
-66 80 194 211 -223 0
-66 80 194 -211 223 0
-66 80 -194 211 223 0
-66 80 -194 -211 -223 0
-66 -80 194 211 223 0
-66 -80 194 -211 -223 0
-66 -80 -194 211 -223 0
-66 -80 -194 -211 223 0
89 122 217 221 -224 0
89 122 217 -221 224 0
89 122 -217 221 224 0
89 122 -217 -221 -224 0
89 -122 217 221 224 0
89 -122 217 -221 -224 0
89 -122 -217 221 -224 0
89 -122 -217 -221 224 0
-89 122 217 221 224 0
-89 122 217 -221 -224 0
-89 122 -217 221 -224 0
-89 122 -217 -221 224 0
-89 -122 217 221 -224 0
-89 -122 217 -221 224 0
-89 -122 -217 221 224 0
-89 -122 -217 -221 -224 0
67 106 140 175 -218 0
67 106 140 -175 218 0
67 106 -140 175 218 0
67 106 -140 -175 -218 0
67 -106 140 175 218 0
67 -106 140 -175 -218 0
67 -106 -140 175 -218 0
67 -106 -140 -175 218 0
-67 106 140 175 218 0
-67 106 140 -175 -218 0
-67 106 -140 175 -218 0
-67 106 -140 -175 218 0
-67 -106 140 175 -218 0
-67 -106 140 -175 218 0
-67 -106 -140 175 218 0
-67 -106 -140 -175 -218 0
97 111 131 215 -225 0
97 111 131 -215 225 0
97 111 -131 215 225 0
97 111 -131 -215 -225 0
97 -111 131 215 225 0
97 -111 131 -215 -225 0
97 -111 -131 215 -225 0
97 -111 -131 -215 225 0
-97 111 131 215 225 0
-97 111 131 -215 -225 0
-97 111 -131 215 -225 0
-97 111 -131 -215 225 0
-97 -111 131 215 -225 0
-97 -111 131 -215 225 0
-97 -111 -131 215 225 0
-97 -111 -131 -215 -225 0
142 176 187 212 -223 0
142 176 187 -212 223 0
142 176 -187 212 223 0
142 176 -187 -212 -223 0
142 -176 187 212 223 0
142 -176 187 -212 -223 0
142 -176 -187 212 -223 0
142 -176 -187 -212 223 0
-142 176 187 212 223 0
-142 176 187 -212 -223 0
-142 176 -187 212 -223 0
-142 176 -187 -212 223 0
-142 -176 187 212 -223 0
-142 -176 187 -212 223 0
-142 -176 -187 212 223 0
-142 -176 -187 -212 -223 0
5 85 183 206 210 0
5 85 183 -206 -210 0
5 85 -183 206 -210 0
5 85 -183 -206 210 0
5 -85 183 206 -210 0
5 -85 183 -206 210 0
5 -85 -183 206 210 0
5 -85 -183 -206 -210 0
-5 85 183 206 -210 0
-5 85 183 -206 210 0
-5 85 -183 206 210 0
-5 85 -183 -206 -210 0
-5 -85 183 206 210 0
-5 -85 183 -206 -210 0
-5 -85 -183 206 -210 0
-5 -85 -183 -206 210 0
101 135 189 199 225 0
101 135 189 -199 -225 0
101 135 -189 199 -225 0
101 135 -189 -199 225 0
101 -135 189 199 -225 0
101 -135 189 -199 225 0
101 -135 -189 199 225 0
101 -135 -189 -199 -225 0
-101 135 189 199 -225 0
-101 135 189 -199 225 0
-101 135 -189 199 225 0
-101 135 -189 -199 -225 0
-101 -135 189 199 225 0
-101 -135 189 -199 -225 0
-101 -135 -189 199 -225 0
-101 -135 -189 -199 225 0
58 165 173 177 -220 0
58 165 173 -177 220 0
58 165 -173 177 220 0
58 165 -173 -177 -220 0
58 -165 173 177 220 0
58 -165 173 -177 -220 0
58 -165 -173 177 -220 0
58 -165 -173 -177 220 0
-58 165 173 177 220 0
-58 165 173 -177 -220 0
-58 165 -173 177 -220 0
-58 165 -173 -177 220 0
-58 -165 173 177 -220 0
-58 -165 173 -177 220 0
-58 -165 -173 177 220 0
-58 -165 -173 -177 -220 0
77 81 92 201 219 0
77 81 92 -201 -219 0
77 81 -92 201 -219 0
77 81 -92 -201 219 0
77 -81 92 201 -219 0
77 -81 92 -201 219 0
77 -81 -92 201 219 0
77 -81 -92 -201 -219 0
-77 81 92 201 -219 0
-77 81 92 -201 219 0
-77 81 -92 201 219 0
-77 81 -92 -201 -219 0
-77 -81 92 201 219 0
-77 -81 92 -201 -219 0
-77 -81 -92 201 -219 0
-77 -81 -92 -201 219 0
178 181 216 222 224 0
178 181 216 -222 -224 0
178 181 -216 222 -224 0
178 181 -216 -222 224 0
178 -181 216 222 -224 0
178 -181 216 -222 224 0
178 -181 -216 222 224 0
178 -181 -216 -222 -224 0
-178 181 216 222 -224 0
-178 181 216 -222 224 0
-178 181 -216 222 224 0
-178 181 -216 -222 -224 0
-178 -181 216 222 224 0
-178 -181 216 -222 -224 0
-178 -181 -216 222 -224 0
-178 -181 -216 -222 224 0
